198 21449
1 2 7 6 3 4 5 8 9 10 11 12 13 41 40 17 16 15 14 29 34 39 112 119 120 169 125 126 131 132 134 136 135 133 130 129 170 127 128 171 182 183 181 177 184 180 185 179 194 198 197 196 195 174 173 176 168 167 50 77 76 81 65 75 82 83 88 98 97 89 90 96 95 94 101 93 102 103 104 105 113 107 108 109 110 111 106 92 91 79 80 78 64 51 47 52 46 53 62 54 45 61 66 74 70 67 68 59 60 73 72 84 87 99 100 86 85 71 69 58 57 42 43 56 55 44 38 31 32 37 36 33 30 28 27 26 24 25 21 20 19 18 22 23 35 48 49 63 114 115 116 122 121 117 118 123 124 140 141 143 146 152 162 161 153 160 159 158 157 156 155 154 139 138 142 147 148 149 150 145 144 137 151 163 164 166 165 172 190 189 188 191 192 193 186 187 178 175 
